<number of tasks>
50

<cycle time>
1000

<order strength>
0.9


<task times>
1 709
2 479
3 356
4 421
5 800
6 546
7 524
8 504
9 649
10 408
11 338
12 725
13 356
14 591
15 606
16 586
17 457
18 506
19 467
20 215
21 586
22 684
23 492
24 368
25 405
26 522
27 497
28 395
29 385
30 702
31 584
32 617
33 595
34 448
35 432
36 490
37 607
38 479
39 611
40 508
41 443
42 416
43 616
44 210
45 549
46 827
47 610
48 499
49 715
50 413

<precedence relations>
1,3
1,4
2,3
2,4
3,5
3,6
3,7
3,8
4,5
4,6
4,7
4,8
5,9
5,10
5,11
5,12
6,9
6,10
6,11
6,12
7,9
7,10
7,11
7,12
8,9
8,10
8,11
8,12
9,13
9,14
9,15
10,13
10,14
10,15
11,13
11,14
11,15
12,13
12,14
12,15
13,16
13,17
13,18
14,16
14,17
14,18
15,16
15,17
15,18
16,19
16,20
17,19
17,20
18,19
18,20
19,21
19,22
20,21
20,22
21,23
21,24
22,23
22,24
23,25
23,26
23,27
23,28
24,25
24,26
24,27
24,28
25,29
26,38
26,39
26,40
26,41
27,29
28,29
29,30
29,31
30,32
30,33
31,32
31,33
31,34
32,35
32,36
32,37
32,38
33,35
33,36
33,38
34,35
34,38
34,40
34,41
35,39
36,39
37,40
37,41
38,42
38,47
38,48
39,43
40,42
41,44
41,47
42,46
43,45
44,49
45,47
45,48
45,49
45,50

<end>
